(get-info :version)
; (:version "4.8.7")
; Started: 2022-07-26 14:59:06
; Silicon.version: 1.1-SNAPSHOT (3973b9ce+)
; Input file: false.vpr
; Verifier id: 00
; ------------------------------------------------------------
; Begin preamble
; ////////// Static preamble
; 
; ; /z3config.smt2
(set-option :print-success true) ; Boogie: false
(set-option :global-decls true) ; Boogie: default
(set-option :auto_config false) ; Usually a good idea
(set-option :smt.restart_strategy 0)
(set-option :smt.restart_factor |1.5|)
(set-option :smt.case_split 3)
(set-option :smt.delay_units true)
(set-option :smt.delay_units_threshold 16)
(set-option :nnf.sk_hack true)
(set-option :type_check true)
(set-option :smt.bv.reflect true)
(set-option :smt.mbqi false)
(set-option :smt.qi.eager_threshold 100)
(set-option :smt.qi.cost "(+ weight generation)")
(set-option :smt.qi.max_multi_patterns 1000)
(set-option :smt.phase_selection 0) ; default: 3, Boogie: 0
(set-option :sat.phase caching)
(set-option :sat.random_seed 0)
(set-option :nlsat.randomize true)
(set-option :nlsat.seed 0)
(set-option :nlsat.shuffle_vars false)
(set-option :fp.spacer.order_children 0) ; Not available with Z3 4.5
(set-option :fp.spacer.random_seed 0) ; Not available with Z3 4.5
(set-option :smt.arith.random_initial_value true) ; Boogie: true
(set-option :smt.random_seed 0)
(set-option :sls.random_offset true)
(set-option :sls.random_seed 0)
(set-option :sls.restart_init false)
(set-option :sls.walksat_ucb true)
(set-option :model.v2 true)
; 
; ; /preamble.smt2
(check-sat)
(declare-datatypes (($Snap 0)) ((
    ($Snap.unit)
    ($Snap.combine ($Snap.first $Snap) ($Snap.second $Snap)))))
(declare-sort $Ref 0)
(declare-const $Ref.null $Ref)
(declare-sort $FPM 0)
(declare-sort $PPM 0)
(define-sort $Perm () Real)
(define-const $Perm.Write $Perm 1.0)
(define-const $Perm.No $Perm 0.0)
(define-fun $Perm.isValidVar ((p $Perm)) Bool
	(<= $Perm.No p))
(define-fun $Perm.isReadVar ((p $Perm)) Bool
    (and ($Perm.isValidVar p)
         (not (= p $Perm.No))))
(define-fun $Perm.min ((p1 $Perm) (p2 $Perm)) Real
    (ite (<= p1 p2) p1 p2))
(define-fun $Math.min ((a Int) (b Int)) Int
    (ite (<= a b) a b))
(define-fun $Math.clip ((a Int)) Int
    (ite (< a 0) 0 a))
; ////////// Sorts
(declare-sort $FVF<$Ref> 0)
(check-sat)
; ////////// Sort wrappers
; Declaring additional sort wrappers
(declare-fun $SortWrappers.IntTo$Snap (Int) $Snap)
(declare-fun $SortWrappers.$SnapToInt ($Snap) Int)
(assert (forall ((x Int)) (!
    (= x ($SortWrappers.$SnapToInt($SortWrappers.IntTo$Snap x)))
    :pattern (($SortWrappers.IntTo$Snap x))
    :qid |$Snap.$SnapToIntTo$Snap|
    )))
(assert (forall ((x $Snap)) (!
    (= x ($SortWrappers.IntTo$Snap($SortWrappers.$SnapToInt x)))
    :pattern (($SortWrappers.$SnapToInt x))
    :qid |$Snap.IntTo$SnapToInt|
    )))
(declare-fun $SortWrappers.BoolTo$Snap (Bool) $Snap)
(declare-fun $SortWrappers.$SnapToBool ($Snap) Bool)
(assert (forall ((x Bool)) (!
    (= x ($SortWrappers.$SnapToBool($SortWrappers.BoolTo$Snap x)))
    :pattern (($SortWrappers.BoolTo$Snap x))
    :qid |$Snap.$SnapToBoolTo$Snap|
    )))
(assert (forall ((x $Snap)) (!
    (= x ($SortWrappers.BoolTo$Snap($SortWrappers.$SnapToBool x)))
    :pattern (($SortWrappers.$SnapToBool x))
    :qid |$Snap.BoolTo$SnapToBool|
    )))
(check-sat)
(declare-fun $SortWrappers.$RefTo$Snap ($Ref) $Snap)
(declare-fun $SortWrappers.$SnapTo$Ref ($Snap) $Ref)
(assert (forall ((x $Ref)) (!
    (= x ($SortWrappers.$SnapTo$Ref($SortWrappers.$RefTo$Snap x)))
    :pattern (($SortWrappers.$RefTo$Snap x))
    :qid |$Snap.$SnapTo$RefTo$Snap|
    )))
(assert (forall ((x $Snap)) (!
    (= x ($SortWrappers.$RefTo$Snap($SortWrappers.$SnapTo$Ref x)))
    :pattern (($SortWrappers.$SnapTo$Ref x))
    :qid |$Snap.$RefTo$SnapTo$Ref|
    )))
(declare-fun $SortWrappers.$PermTo$Snap ($Perm) $Snap)
(declare-fun $SortWrappers.$SnapTo$Perm ($Snap) $Perm)
(assert (forall ((x $Perm)) (!
    (= x ($SortWrappers.$SnapTo$Perm($SortWrappers.$PermTo$Snap x)))
    :pattern (($SortWrappers.$PermTo$Snap x))
    :qid |$Snap.$SnapTo$PermTo$Snap|
    )))
(assert (forall ((x $Snap)) (!
    (= x ($SortWrappers.$PermTo$Snap($SortWrappers.$SnapTo$Perm x)))
    :pattern (($SortWrappers.$SnapTo$Perm x))
    :qid |$Snap.$PermTo$SnapTo$Perm|
    )))
; Declaring additional sort wrappers
(declare-fun $SortWrappers.$FVF<$Ref>To$Snap ($FVF<$Ref>) $Snap)
(declare-fun $SortWrappers.$SnapTo$FVF<$Ref> ($Snap) $FVF<$Ref>)
(assert (forall ((x $FVF<$Ref>)) (!
    (= x ($SortWrappers.$SnapTo$FVF<$Ref>($SortWrappers.$FVF<$Ref>To$Snap x)))
    :pattern (($SortWrappers.$FVF<$Ref>To$Snap x))
    :qid |$Snap.$SnapTo$FVF<$Ref>To$Snap|
    )))
(assert (forall ((x $Snap)) (!
    (= x ($SortWrappers.$FVF<$Ref>To$Snap($SortWrappers.$SnapTo$FVF<$Ref> x)))
    :pattern (($SortWrappers.$SnapTo$FVF<$Ref> x))
    :qid |$Snap.$FVF<$Ref>To$SnapTo$FVF<$Ref>|
    )))
; ////////// Symbols
; Declaring symbols related to program functions (from program analysis)
; Snapshot variable to be used during function verification
(declare-fun s@$ () $Snap)
; Declaring predicate trigger functions
; ////////// Uniqueness assumptions from domains
; ////////// Axioms
; End preamble
; ------------------------------------------------------------
; State saturation: after preamble
(set-option :timeout 100)
(check-sat)
; unknown
; ------------------------------------------------------------
; Begin function- and predicate-related preamble
; Declaring symbols related to program functions (from verification)
; End function- and predicate-related preamble
; ------------------------------------------------------------
; ---------- myMethod ----------
(declare-const r@0@01 $Ref)
(declare-const r@1@01 $Ref)
(push) ; 1
; State saturation: after contract
(set-option :timeout 50)
(check-sat)
; unknown
(push) ; 2
(pop) ; 2
(push) ; 2
; [exec]
; assert false == true
; [eval] false == true
(set-option :timeout 0)
(push) ; 3
(assert (not false))
(check-sat)
; unknown
(pop) ; 3
; 0.00s
; (get-info :all-statistics)
; [state consolidation]
; State saturation: before repetition
(set-option :timeout 10)
(check-sat)
; unknown
; [eval] false == true
(set-option :timeout 0)
(push) ; 3
(assert (not false))
(check-sat)
; unknown
(pop) ; 3
; 0.00s
; (get-info :all-statistics)
; [state consolidation]
; State saturation: before repetition
(set-option :timeout 10)
(check-sat)
; unknown
; [eval] false == true
(set-option :timeout 0)
(push) ; 3
(assert (not false))
(check-sat)
; unknown
(pop) ; 3
; 0.00s
; (get-info :all-statistics)
; [state consolidation]
; State saturation: before repetition
(set-option :timeout 10)
(check-sat)
; unknown
; [eval] false == true
(set-option :timeout 0)
(push) ; 3
(assert (not false))
(check-sat)
; unknown
(pop) ; 3
; 0.00s
; (get-info :all-statistics)
(pop) ; 2
(pop) ; 1
